3 16 1 10
5 8 17 17 17 15 7 13 6 5 9 9 11 13 2 16 
13.39 12.7 8.56 6.09 12.4 6.53 3.69 1.69 15.44 7.02 12.02 13.67 5.49 15.51 15.18 11.52 
8 8 8 8 8 8 8 8 8 8 8 8 8 8 8 8 
11.21 6.56 13.45 2.23 0.73 0.35 0.89 3.56 11.88 5.71 4.87 12.52 8.27 7.19 2.5 7.63 
1 1 1 1 1 1 1 1 1 1 1 1 1 1 1 1 
1 1 1 1 1 1 1 1 1 1 1 1 1 1 1 1 
1 1 1 1 1 1 1 1 1 1 1 1 1 1 1 1 
0.01 0.01 0.01 0.01 0.01 0.01 0.01 0.01 0.01 0.01 0.01 0.01 0.01 0.01 0.01 0.01 
0.02 0.02 0.02 0.02 0.02 0.02 0.02 0.02 0.02 0.02 0.02 0.02 0.02 0.02 0.02 0.02 
1 1 1 1 1 1 1 1 1 1 1 1 1 1 1 1 
